ID_groupA,ID_groupB,ID_groupC
90331,49866,1468
90331,86970,1468
90331,81077,1468
59549,81077,1468
90331,81077,1468
90331,81077,1468
90331,124100,1468
90331,124100,1468
90331,124100,1468
90331,81077,1468
90331,86970,1468
90331,86970,1468
90331,81077,1468
90331,49866,1468
90331,86970,1468
90331,81077,1468
90331,49866,1468
90331,81077,1468
90331,81077,1468
90331,124100,1468
90331,124100,1468
90331,124100,1468
90331,86970,1468
90331,86970,1468
90331,86970,1468
90331,49866,1468
90331,49866,1468
90331,86970,1468
59549,86970,1468
90331,86970,1468
90331,86970,50275
90331,86970,1468
16437,86970,32401
90331,86970,1468
90331,86970,1468
90331,86970,1468
90331,86970,1468
90331,86970,1468
90331,86970,1468
59549,81077,1468
90331,81077,1468
90331,81077,50275
90331,81077,1468
90331,124100,1468
90331,124100,1468
90331,81077,1468
90331,86970,1468
90331,81077,1468
90331,81077,1468
90331,81077,1468
59549,81077,59775
59549,81077,50275
59549,81077,76609
59549,124100,76609
59549,124100,76609
90331,124100,1468
59549,86970,1468
59549,86970,1468
59549,81077,1468
59549,81077,50275
90331,81077,50275
90331,81077,1468
90331,124100,1468
90331,81077,1468
90331,81077,1468
90331,81077,1468
90331,81077,1468
90331,81077,1468
90331,81077,1468
90331,81077,1468
90331,124100,1468
90331,124100,1468
90331,81077,1468
49668,49866,50275
90331,86970,50275
90331,81077,50275
33732,49866,50275
59549,124100,76609
59549,124100,76609
90331,124100,1468
90331,86970,1468
90331,86970,1468
90331,81077,1468
90331,49866,1468
16437,124100,32401
90331,124100,1468
90331,124100,1468
90331,124100,1468
90331,81077,1468
90331,124100,1468
90331,124100,1468
90331,124100,1468
90331,124100,1468
90331,81077,1468
90331,124100,1468
90331,86970,1468
90331,86970,1468
90331,81077,1468
90331,81077,50275
90331,86970,1468
90331,86970,1468
90331,86970,1468
90331,86970,1468
90331,49866,1468
90331,49866,1468
